(declare-const a Real)
(declare-const b Real)
(declare-const c Real)
(assert (= (* a b c) 1))
(assert (> a 0))
(assert (> b 0))
(assert (> c 0))
(assert (not (<= (+ (* -572928 (pow b 4)) (* -413184 (pow a 4)) (* 1404 (pow (+ (* 2 a) (* 2 b)) 4)) (* 663552 (pow (+ (* (/ 5 12) a) (* (/ 7 12) b)) 4)) (* -884736 (pow a (pow 3 -1)) (pow b (/ 11 3))) (* -442368 (pow a (/ 10 3)) (pow b (/ 2 3))) (* 153600 b (pow a 3)) (* 1136640 a (pow b 3))) 0)))
(check-sat)
(get-model)
(exit)